* ENCODING=ISO-8859-1
NAME          CPLEX
ROWS
 N  obj1    
 G  c1      
 G  c2      
 G  c3      
 G  c4      
 G  c5      
 G  c6      
 G  c7      
 G  c8      
 G  c9      
 G  c10     
 G  c11     
 G  c12     
 G  c13     
 G  c14     
 G  c15     
 G  c16     
 G  c17     
 G  c18     
 G  c19     
 G  c20     
 G  c21     
 G  c22     
 G  c23     
 G  c24     
 G  c25     
 G  c26     
 G  c27     
 G  c28     
 G  c29     
 G  c30     
 G  c31     
 G  c32     
 G  c33     
 G  c34     
 G  c35     
 G  c36     
 G  c37     
 G  c38     
 G  c39     
 G  c40     
COLUMNS
    MARK0000  'MARKER'                 'INTORG'
    x1        obj1                            1
    x1        c12                           139
    x1        c24                           863
    x1        c30                           100
    x1        c33                           901
    x1        c38                           419
    x1        c40                           279
    x2        obj1                            1
    x2        c5                            905
    x2        c34                           103
    x3        obj1                            1
    x3        c9                            335
    x3        c12                           846
    x3        c15                           956
    x3        c27                           953
    x3        c30                           966
    x3        c39                           928
    x4        obj1                            1
    x4        c2                            567
    x4        c10                           345
    x4        c20                           158
    x4        c23                           185
    x5        obj1                            1
    x5        c2                            614
    x6        obj1                            1
    x6        c10                           927
    x6        c12                           945
    x6        c13                           485
    x6        c20                           242
    x6        c26                           398
    x7        obj1                            1
    x7        c14                           328
    x7        c27                           267
    x8        obj1                            1
    x8        c10                           589
    x8        c13                           859
    x8        c27                           695
    x8        c29                           635
    x8        c30                           814
    x8        c36                           313
    x9        obj1                            1
    x9        c19                           561
    x9        c21                           490
    x9        c22                           778
    x10       obj1                            1
    x10       c3                            308
    x10       c37                           530
    x11       obj1                            1
    x11       c1                            950
    x11       c4                            402
    x11       c6                            562
    x11       c12                           125
    x11       c19                           450
    x11       c25                           330
    x11       c27                           560
    x11       c32                           653
    x12       obj1                            1
    x12       c9                            688
    x12       c14                           477
    x12       c20                           205
    x12       c36                           436
    x13       obj1                            1
    x13       c8                            960
    x13       c15                           973
    x13       c31                           971
    x13       c36                           507
    x14       obj1                            1
    x14       c8                            674
    x14       c11                           435
    x14       c12                           797
    x14       c15                           587
    x14       c18                           249
    x14       c30                           957
    x15       obj1                            1
    x15       c1                            794
    x15       c34                           631
    x16       obj1                            1
    x16       c34                           920
    x17       obj1                            1
    x17       c14                           857
    x18       obj1                            1
    x18       c17                           262
    x18       c28                           169
    x19       obj1                            1
    x19       c9                            318
    x19       c14                           248
    x19       c19                           325
    x19       c31                           208
    x19       c32                           183
    x20       obj1                            1
    x20       c7                            254
    x20       c26                           910
    x21       obj1                            1
    x21       c2                            728
    x21       c14                           448
    x21       c37                           766
    x22       obj1                            1
    x22       c4                            946
    x22       c19                           900
    x22       c32                           177
    x22       c33                           494
    x22       c38                           946
    x23       obj1                            1
    x23       c9                            934
    x23       c20                           350
    x23       c36                           385
    x24       obj1                            1
    x24       c1                            790
    x24       c28                           800
    x24       c34                           802
    x25       obj1                            1
    x25       c2                            347
    x25       c9                            891
    x25       c15                           633
    x26       obj1                            1
    x26       c23                           337
    x26       c31                           849
    x26       c37                           696
    x26       c39                           349
    x27       obj1                            1
    x27       c5                            482
    x27       c7                            651
    x27       c10                           728
    x27       c20                           583
    x27       c31                           549
    x28       obj1                            1
    x28       c5                            580
    x28       c15                           959
    x28       c24                           142
    x28       c37                           323
    x29       obj1                            1
    x29       c9                            660
    x29       c13                           884
    x29       c25                           540
    x29       c31                           577
    x29       c38                           605
    x29       c39                           916
    x30       obj1                            1
    x30       c23                           674
    x30       c28                           750
    x30       c35                           539
    x31       obj1                            1
    x31       c7                            103
    x31       c17                           302
    x31       c18                           286
    x31       c35                           981
    x32       obj1                            1
    x32       c9                            237
    x32       c23                           898
    x32       c32                           880
    x33       obj1                            1
    x33       c3                            377
    x34       obj1                            1
    x34       c1                            448
    x34       c3                            270
    x34       c22                           668
    x34       c23                           684
    x34       c26                           200
    x34       c30                           204
    x34       c35                           860
    x35       obj1                            1
    x35       c37                           708
    x35       c38                           790
    x36       obj1                            1
    x37       obj1                            1
    x37       c7                            848
    x37       c14                           593
    x37       c21                           468
    x37       c23                           281
    x37       c28                           279
    x38       obj1                            1
    x38       c13                           432
    x38       c16                           179
    x38       c22                           347
    x38       c26                           875
    x38       c33                           537
    x38       c40                           516
    x39       obj1                            1
    x39       c6                            760
    x39       c33                           552
    x39       c38                           601
    x40       obj1                            1
    x40       c16                           728
    x41       obj1                            1
    x41       c6                            157
    x41       c29                           324
    x42       obj1                            1
    x42       c1                            731
    x42       c7                            181
    x42       c8                            319
    x42       c13                           674
    x42       c22                           127
    x42       c23                           435
    x43       obj1                            1
    x43       c5                            661
    x43       c6                            725
    x43       c26                           635
    x44       obj1                            1
    x44       c27                           413
    x45       obj1                            1
    x45       c5                            742
    x45       c6                            264
    x45       c30                           545
    x45       c31                           773
    x45       c33                           471
    x45       c40                           998
    x46       obj1                            1
    x46       c6                            641
    x46       c8                            574
    x46       c15                           928
    x46       c20                           497
    x46       c23                           265
    x46       c27                           626
    x46       c28                           603
    x47       obj1                            1
    x47       c6                            340
    x47       c9                            830
    x47       c12                           537
    x47       c31                           221
    x48       obj1                            1
    x48       c12                           489
    x48       c31                           933
    x48       c32                           543
    x48       c35                           224
    x48       c36                           273
    x49       obj1                            1
    x49       c27                           147
    x50       obj1                            1
    x50       c13                           305
    x50       c29                           998
    x50       c36                           889
    x51       obj1                            1
    x51       c7                            272
    x51       c14                           218
    x51       c25                           799
    x51       c28                           249
    x51       c34                           499
    x52       obj1                            1
    x52       c3                            349
    x52       c6                            477
    x52       c10                           695
    x52       c12                           854
    x52       c26                           523
    x52       c38                           753
    x53       obj1                            1
    x53       c10                           997
    x53       c28                           681
    x53       c32                           486
    x54       obj1                            1
    x54       c1                            235
    x54       c7                            115
    x54       c16                           185
    x54       c17                           884
    x55       obj1                            1
    x55       c2                            234
    x55       c38                           843
    x56       obj1                            1
    x56       c3                            636
    x56       c4                            409
    x56       c9                            750
    x56       c24                           347
    x56       c35                           545
    x56       c38                           603
    x57       obj1                            1
    x57       c15                           536
    x57       c36                           370
    x58       obj1                            1
    x58       c26                           555
    x58       c28                           887
    x58       c35                           562
    x58       c36                           360
    x58       c39                           677
    x58       c40                           830
    x59       obj1                            1
    x59       c4                            503
    x59       c6                            265
    x59       c14                           123
    x59       c15                           561
    x59       c22                           170
    x59       c24                           752
    x60       obj1                            1
    x60       c3                            395
    x60       c4                            449
    x60       c10                           702
    x60       c21                           385
    x60       c30                           118
    x61       obj1                            1
    x61       c1                            903
    x61       c5                            929
    x61       c17                           469
    x61       c18                           301
    x61       c33                           508
    x61       c36                           972
    x62       obj1                            1
    x62       c9                            788
    x62       c10                           606
    x62       c17                           760
    x62       c21                           603
    x62       c25                           367
    x63       obj1                            1
    x63       c5                            343
    x63       c14                           138
    x63       c38                           398
    x63       c40                           951
    x64       obj1                            1
    x64       c3                            496
    x64       c5                            209
    x64       c23                           612
    x65       obj1                            1
    x65       c6                            670
    x65       c8                            938
    x65       c12                           637
    x65       c14                           315
    x65       c29                           954
    x65       c31                           430
    x66       obj1                            1
    x66       c3                            518
    x66       c11                           761
    x66       c14                           923
    x66       c38                           358
    x67       obj1                            1
    x67       c26                           389
    x67       c35                           565
    x67       c37                           722
    x68       obj1                            1
    x68       c6                            210
    x68       c18                           181
    x68       c27                           684
    x68       c33                           304
    x69       obj1                            1
    x69       c1                            932
    x69       c5                            286
    x69       c7                            910
    x69       c11                           945
    x69       c36                           380
    x70       obj1                            1
    x70       c17                           785
    x70       c25                           532
    x70       c26                           760
    x70       c27                           921
    x70       c28                           468
    x71       obj1                            1
    x71       c4                            962
    x71       c15                           389
    x71       c21                           909
    x72       obj1                            1
    x73       obj1                            1
    x73       c13                           145
    x73       c16                           535
    x73       c22                           182
    x73       c31                           272
    x73       c35                           674
    x73       c38                           901
    x73       c40                           203
    x74       obj1                            1
    x74       c6                            837
    x74       c12                           995
    x74       c37                           530
    x75       obj1                            1
    x75       c11                           777
    x75       c19                           905
    x75       c29                           299
    x75       c36                           842
    x75       c37                           102
    x75       c38                           211
    x76       obj1                            1
    x76       c34                           730
    x77       obj1                            1
    x77       c12                           414
    x78       obj1                            1
    x78       c32                           459
    x79       obj1                            1
    x79       c1                            552
    x79       c15                           857
    x79       c16                           678
    x79       c25                           467
    x80       obj1                            1
    x80       c3                            839
    x80       c13                           375
    x80       c26                           646
    MARK0001  'MARKER'                 'INTEND'
RHS
    rhs       c1                           3168
    rhs       c2                           1245
    rhs       c3                           2094
    rhs       c4                           1836
    rhs       c5                           2569
    rhs       c6                           2954
    rhs       c7                           1667
    rhs       c8                           1733
    rhs       c9                           3216
    rhs       c10                          2795
    rhs       c11                          1459
    rhs       c12                          3389
    rhs       c13                          2080
    rhs       c14                          2334
    rhs       c15                          3690
    rhs       c16                          1153
    rhs       c17                          1731
    rhs       c18                           509
    rhs       c19                          1571
    rhs       c20                          1018
    rhs       c21                          1428
    rhs       c22                          1136
    rhs       c23                          2186
    rhs       c24                          1052
    rhs       c25                          1518
    rhs       c26                          2946
    rhs       c27                          2633
    rhs       c28                          2443
    rhs       c29                          1605
    rhs       c30                          1852
    rhs       c31                          2892
    rhs       c32                          1691
    rhs       c33                          1884
    rhs       c34                          1843
    rhs       c35                          2475
    rhs       c36                          2864
    rhs       c37                          2189
    rhs       c38                          3714
    rhs       c39                          1435
    rhs       c40                          1889
BOUNDS
 LI bnd       x1        0
 LI bnd       x2        0
 LI bnd       x3        0
 LI bnd       x4        0
 LI bnd       x5        0
 LI bnd       x6        0
 LI bnd       x7        0
 LI bnd       x8        0
 LI bnd       x9        0
 LI bnd       x10       0
 LI bnd       x11       0
 LI bnd       x12       0
 LI bnd       x13       0
 LI bnd       x14       0
 LI bnd       x15       0
 LI bnd       x16       0
 LI bnd       x17       0
 LI bnd       x18       0
 LI bnd       x19       0
 LI bnd       x20       0
 LI bnd       x21       0
 LI bnd       x22       0
 LI bnd       x23       0
 LI bnd       x24       0
 LI bnd       x25       0
 LI bnd       x26       0
 LI bnd       x27       0
 LI bnd       x28       0
 LI bnd       x29       0
 LI bnd       x30       0
 LI bnd       x31       0
 LI bnd       x32       0
 LI bnd       x33       0
 LI bnd       x34       0
 LI bnd       x35       0
 LI bnd       x36       0
 LI bnd       x37       0
 LI bnd       x38       0
 LI bnd       x39       0
 LI bnd       x40       0
 LI bnd       x41       0
 LI bnd       x42       0
 LI bnd       x43       0
 LI bnd       x44       0
 LI bnd       x45       0
 LI bnd       x46       0
 LI bnd       x47       0
 LI bnd       x48       0
 LI bnd       x49       0
 LI bnd       x50       0
 LI bnd       x51       0
 LI bnd       x52       0
 LI bnd       x53       0
 LI bnd       x54       0
 LI bnd       x55       0
 LI bnd       x56       0
 LI bnd       x57       0
 LI bnd       x58       0
 LI bnd       x59       0
 LI bnd       x60       0
 LI bnd       x61       0
 LI bnd       x62       0
 LI bnd       x63       0
 LI bnd       x64       0
 LI bnd       x65       0
 LI bnd       x66       0
 LI bnd       x67       0
 LI bnd       x68       0
 LI bnd       x69       0
 LI bnd       x70       0
 LI bnd       x71       0
 LI bnd       x72       0
 LI bnd       x73       0
 LI bnd       x74       0
 LI bnd       x75       0
 LI bnd       x76       0
 LI bnd       x77       0
 LI bnd       x78       0
 LI bnd       x79       0
 LI bnd       x80       0
ENDATA
